Please solve the following SAT Problem encoded in DIMACS format, only return a single solution assignment without explanations, if there is any: 
p cnf 10 50
7 -3 8 0
-3 5 -4 0
5 6 8 0
-10 -8 -7 0
5 10 4 0
6 -2 9 0
-2 8 10 0
-1 5 -7 0
-4 6 -1 0
5 10 -7 0
-2 6 8 0
6 -1 -4 0
6 1 -4 0
8 -3 9 0
-7 6 -2 0
8 6 5 0
-4 -3 7 0
-4 -2 9 0
-3 -10 -6 0
-1 6 -7 0
6 -10 2 0
-7 -9 10 0
-4 -9 -7 0
-2 6 8 0
-2 -3 -9 0
8 5 -3 0
-3 -4 -7 0
9 6 8 0
10 8 -1 0
-2 10 -4 0
-7 5 8 0
-3 -2 5 0
9 -5 10 0
-3 1 2 0
-10 3 5 0
4 10 -1 0
9 -5 -3 0
-5 -2 -3 0
-2 5 -4 0
-5 -3 -4 0
-7 -4 5 0
-4 9 -5 0
-2 -5 -10 0
6 5 -7 0
-3 -6 5 0
6 7 -10 0
-5 -3 -2 0
-5 8 -1 0
-1 5 -3 0
-3 -1 10 0

